c Random generated cnf formula, satisfiable: true
p cnf 10 50
-6 -4 -9 0
-5 -8 9 0
9 2 -1 0
-7 1 -6 0
-7 9 -5 0
8 -4 -1 0
-2 -10 -8 0
-8 5 -9 0
5 -6 -3 0
-4 -2 10 0
-10 -9 7 0
-5 -6 -2 0
-8 3 6 0
3 10 4 0
-2 7 -4 0
-4 7 9 0
-5 -6 4 0
-6 9 -2 0
-2 -9 5 0
-1 8 -3 0
-1 -5 9 0
-1 -9 -10 0
-3 5 -7 0
-4 1 5 0
3 -10 -4 0
-1 -2 10 0
-5 8 6 0
2 3 1 0
-3 1 -10 0
1 -3 5 0
-1 -9 -5 0
-3 -4 1 0
-6 4 8 0
4 5 -9 0
1 -2 8 0
-2 -1 6 0
3 9 2 0
-2 -6 -10 0
8 -10 2 0
-2 -4 -3 0
1 -6 2 0
-10 5 9 0
-8 -5 -2 0
-8 -3 9 0
-6 2 3 0
-2 -5 -3 0
3 7 9 0
-6 -10 -3 0
-2 4 -10 0
10 9 3 0
